
******************************************************************************
This program contains Ipopt, a library for large-scale nonlinear optimization.
 Ipopt is released as open source code under the Eclipse Public License (EPL).
         For more information visit http://projects.coin-or.org/Ipopt
******************************************************************************

This is Ipopt version 3.12.6, running with linear solver ma57.

Number of nonzeros in equality constraint Jacobian...:       49
Number of nonzeros in inequality constraint Jacobian.:       30
Number of nonzeros in Lagrangian Hessian.............:        0

Total number of variables............................:       42
                     variables with only lower bounds:        0
                variables with lower and upper bounds:       42
                     variables with only upper bounds:        0
Total number of equality constraints.................:       23
Total number of inequality constraints...............:       15
        inequality constraints with only lower bounds:        0
   inequality constraints with lower and upper bounds:        0
        inequality constraints with only upper bounds:       15

iter    objective    inf_pr   inf_du lg(mu)  ||d||  lg(rg) alpha_du alpha_pr  ls
   0  0.0000000e+00 2.96e+00 1.00e+00  -1.0 0.00e+00    -  0.00e+00 0.00e+00   0
   1  0.0000000e+00 1.98e+01 1.00e+00  -1.0 3.23e+01    -  3.07e-04 3.06e-04h  1
   2  0.0000000e+00 4.95e+01 4.86e+00  -1.0 7.86e+01    -  1.30e-04 4.46e-05h  1
   3  0.0000000e+00 1.49e+02 1.17e+01  -1.0 7.54e+01    -  2.03e-04 9.37e-05h  1
   4  0.0000000e+00 1.50e+02 1.34e+02  -1.0 1.65e+01    -  6.66e-04 8.85e-05h  1
   5  0.0000000e+00 1.49e+02 3.49e+02  -1.0 1.60e+01    -  2.53e-03 4.79e-03f  1
   6  0.0000000e+00 1.49e+02 3.03e+03  -1.0 1.59e+01    -  2.02e-02 4.37e-03f  1
   7  0.0000000e+00 1.35e+02 1.36e+04  -1.0 1.58e+01    -  1.35e-02 9.14e-02f  1
   8  0.0000000e+00 1.30e+02 4.86e+04  -1.0 1.44e+01    -  3.15e-01 4.36e-02f  1
   9  0.0000000e+00 5.94e+00 1.31e+05  -1.0 1.38e+01    -  2.05e-01 1.00e+00f  1
iter    objective    inf_pr   inf_du lg(mu)  ||d||  lg(rg) alpha_du alpha_pr  ls
  10  0.0000000e+00 5.97e+00 6.46e+04  -1.0 3.46e-01    -  6.60e-01 1.49e-01f  2
  11  0.0000000e+00 6.00e+00 5.55e+04  -1.0 1.02e+00    -  6.27e-01 1.00e+00f  1
  12  0.0000000e+00 5.99e+00 1.60e+05  -1.0 2.71e+00    -  4.05e-01 1.00e+00f  1
  13  0.0000000e+00 6.00e+00 7.62e+04  -1.0 4.53e+00    -  7.96e-01 1.00e+00f  1
  14  0.0000000e+00 5.99e+00 1.80e+05  -1.0 1.95e+01    -  3.78e-01 1.00e+00f  1
  15  0.0000000e+00 6.00e+00 1.00e-06  -1.0 1.34e+01    -  1.00e+00 1.00e+00h  1
  16  0.0000000e+00 6.00e+00 1.38e+05  -2.5 2.39e-01    -  1.00e+00 7.34e-01h  1
  17  0.0000000e+00 6.00e+00 3.15e-08  -2.5 6.83e+00    -  1.00e+00 1.00e+00h  1
  18  0.0000000e+00 6.00e+00 3.17e-08  -2.5 8.43e-02    -  1.00e+00 1.00e+00s 22
  19  0.0000000e+00 6.00e+00 2.87e-08  -2.5 2.15e-04    -  1.00e+00 1.00e+00s 22
iter    objective    inf_pr   inf_du lg(mu)  ||d||  lg(rg) alpha_du alpha_pr  ls
  20r 0.0000000e+00 6.00e+00 1.00e+03  -0.8 0.00e+00    -  0.00e+00 0.00e+00R  1
  21r 0.0000000e+00 5.91e+00 9.94e+02  -0.8 3.20e+03    -  8.90e-03 4.95e-03f  1
  22r 0.0000000e+00 5.65e+00 9.80e+02  -0.8 2.42e+00    -  9.93e-01 1.44e-02f  1
  23r 0.0000000e+00 2.49e-01 6.13e+02  -0.8 1.74e-01    -  3.57e-01 3.74e-01f  1
  24r 0.0000000e+00 2.49e-01 1.60e-06  -0.8 2.13e-02    -  1.00e+00 1.00e+00f  1
  25r 0.0000000e+00 2.50e-01 3.49e-02  -3.4 1.99e-01    -  9.98e-01 1.00e+00f  1
  26r 0.0000000e+00 2.50e-01 4.33e-09  -3.4 7.52e-05    -  1.00e+00 1.00e+00f  1
  27r 0.0000000e+00 2.50e-01 1.60e-03  -5.0 5.50e-04    -  1.00e+00 1.00e+00f  1
  28r 0.0000000e+00 2.50e-01 9.03e-11  -5.0 8.54e-07    -  1.00e+00 1.00e+00h  1
  29r 0.0000000e+00 2.50e-01 2.55e-04  -7.6 1.17e-05    -  1.00e+00 1.00e+00f  1
iter    objective    inf_pr   inf_du lg(mu)  ||d||  lg(rg) alpha_du alpha_pr  ls
  30r 0.0000000e+00 2.50e-01 1.55e-01  -7.6 8.25e-09    -  1.00e+00 2.50e-01h  3
  31r 0.0000000e+00 2.50e-01 1.21e-01  -7.6 5.69e-09    -  1.00e+00 5.00e-01h  2
  32r 0.0000000e+00 2.50e-01 6.06e-02  -7.6 1.05e-08    -  1.00e+00 5.00e-01h  2
  33r 0.0000000e+00 2.50e-01 4.55e-02  -7.6 1.28e-08    -  1.00e+00 2.50e-01h  3
  34r 0.0000000e+00 2.50e-01 3.41e-02  -7.6 3.91e-09    -  1.00e+00 2.50e-01h  3
  35r 0.0000000e+00 2.50e-01 3.36e-02  -7.6 2.36e-09    -  1.00e+00 1.56e-02h  7

Number of Iterations....: 35

                                   (scaled)                 (unscaled)
Objective...............:   0.0000000000000000e+00    0.0000000000000000e+00
Dual infeasibility......:   1.4804382853554966e-05    1.4804382853554966e-05
Constraint violation....:   2.4999999985766361e-01    2.4999999985766361e-01
Complementarity.........:   2.7054145568857750e-08    2.7054145568857750e-08
Overall NLP error.......:   2.4999999985766361e-01    2.4999999985766361e-01


Number of objective function evaluations             = 77
Number of objective gradient evaluations             = 22
Number of equality constraint evaluations            = 77
Number of inequality constraint evaluations          = 77
Number of equality constraint Jacobian evaluations   = 38
Number of inequality constraint Jacobian evaluations = 38
Number of Lagrangian Hessian evaluations             = 36
Total CPU secs in IPOPT (w/o function evaluations)   =      0.017
Total CPU secs in NLP function evaluations           =      0.003

EXIT: Converged to a point of local infeasibility. Problem may be infeasible.

************************ CUTEst statistics ************************


 Package used            :  IPOPT
 Problem                 :  MODEL     
 # variables             =            1542
 # constraints           =              38
 # objective functions   =        0.1000000E+03
 # objective gradients   =        0.2300000E+02
 # objective Hessians    =        0.3600000E+02
 # Hessian-vector prdct  =        0.0000000E+00
 # constraints functions =        0.1170000E+03
 # constraints gradients =        0.4000000E+02
 # constraints Hessians  =        0.3600000E+02
 Exit code               =               2
 Final f                 =   0.0000000E+00
 Set up time             =            0.01 seconds
 Solve time              =            0.07 seconds


******************************************************************

System Time =       0.0179999992 s.
